(set-logic HORN)
(declare-fun state (Int (Array Int Int) (Array Int Int) (Array Int Int) (Array Int Int) Int Int (Array Int Int) (Array Int Int) Int Int Int Int Int Int Int Int Int Int Int Int Int Int Int Int Int Int Int Int Int Int Int Int Int Int Int Int Int Int Int Int Int Int Int Int Int Int Int Int Int Bool Bool Bool Bool Bool (Array Int Int) Int Int Int) Bool)
(assert (forall ((|A_28| Int) (|B_28| (Array Int Int)) (|C_28| (Array Int Int)) (|D_28| (Array Int Int)) (|E_28| (Array Int Int)) (|F_28| Int) (|G_28| Int) (|H_28| (Array Int Int)) (|I_28| (Array Int Int)) (|J_28| Int) (|K_28| Int) (|L_28| Int) (|M_28| Int) (|N_28| Int) (|O_28| Int) (|P_28| Int) (|Q_28| Int) (|R_28| Int) (|S_28| Int) (|T_28| Int) (|U_28| Int) (|Z1_17| Int) (|W_28| Int) (|X_28| Int) (|Y_28| Int) (|Z_28| Int) (|A1_28| Int) (|B1_28| Int) (|C1_28| Int) (|D1_28| Int) (|E1_28| Int) (|F1_28| Int) (|G1_28| Int) (|H1_28| Int) (|I1_28| Int) (|J1_28| Int) (|K1_28| Int) (|L1_28| Int) (|M1_28| Int) (|N1_28| Int) (|O1_28| Int) (|P1_28| Int) (|Q1_28| Int) (|R1_28| Int) (|S1_28| Int) (|T1_28| Int) (|U1_28| Int) (|V1_28| Int) (|W1_28| Int) (|X1_28| Int) (|Y1_28| Bool) (|.loc.5| Bool) (|.loc.6| Bool) (|.loc.7| Bool) (|.loc.8| Bool) (|Z1_0| (Array Int Int)) (|G2_0| Int) (|F2_2| Int) (|E2_3| Int) (|.x.1640| Int) (|.x.1638| Int) (|.x.1636| (Array Int Int)) (|.x.1634| Int) (|.x.1632| (Array Int Int)) (|.x.1628| Int) (|.x.1630| (Array Int Int)) (|.x.1649| Int) (|.x.1643| Int) (|.x.1653| Int) (|.x.1673| Int) (|.x.1678| Bool) (|.x.1641| Int) (|.x.1629| (Array Int Int)) (|.x.1642| Int) (|.x.1647| Int) (|.x.1648| Int) (|.x.1663| Int) (|.x.1668| Int) (|.x.1669| Int) (|.x.1670| Int) (|.x.1672| Int) (|.loc.9| Bool) (|.x.1652| Int) (|.x.1651| Int) (|.x.1655| Int) (|.x.1656| Int) (|.x.1657| Int) (|.x.1662| Int) (|.x.1671| Int) (|.loc.10| Bool) (|.x.1660| Int) (|.x.1659| Int) (|.x.1654| Int) (|.loc.11| Bool) (|.loc.12| Bool) (|.x.1645| Int) (|.x.1650| Int) (|.x.1644| Int) (|.x.1646| Int) (|.x.1631| (Array Int Int)) (|.x.1665| Int) (|.x.1666| Int) (|.x.1667| Int) (|.x.1674| Int) (|.x.1675| Int) (|.x.1676| Int) (|.x.1677| Int) (|.x.1635| (Array Int Int)) (|.x.1633| Int) (|.x.1637| Int) (|.x.1639| Int) (|.x.1658| Int) (|.x.1661| Int) (|.x.1664| Int) (|.xtv.1| (Array Int Int)) (|.xtv.2| Int) (|.xtv.3| Int) (|.xtv.4| Int)) (=> (and (and (and .loc.7 (and .loc.5 (not .loc.6))) (not .loc.8)) (and (and (and (and (and (and (= D_28 E_28) (not Y1_28)) (= F_28 G_28)) (= L_28 M_28)) (= J_28 K_28)) (= H_28 I_28)) (= B_28 C_28))) (state |A_28| |B_28| |C_28| |D_28| |E_28| |F_28| |G_28| |H_28| |I_28| |J_28| |K_28| |L_28| |M_28| |N_28| |O_28| |P_28| |Q_28| |R_28| |S_28| |T_28| |U_28| |Z1_17| |W_28| |X_28| |Y_28| |Z_28| |A1_28| |B1_28| |C1_28| |D1_28| |E1_28| |F1_28| |G1_28| |H1_28| |I1_28| |J1_28| |K1_28| |L1_28| |M1_28| |N1_28| |O1_28| |P1_28| |Q1_28| |R1_28| |S1_28| |T1_28| |U1_28| |V1_28| |W1_28| |X1_28| |Y1_28| |.loc.5| |.loc.6| |.loc.7| |.loc.8| |Z1_0| |G2_0| |F2_2| |E2_3|))))
(assert (forall ((|A_28| Int) (|B_28| (Array Int Int)) (|C_28| (Array Int Int)) (|D_28| (Array Int Int)) (|E_28| (Array Int Int)) (|F_28| Int) (|G_28| Int) (|H_28| (Array Int Int)) (|I_28| (Array Int Int)) (|J_28| Int) (|K_28| Int) (|L_28| Int) (|M_28| Int) (|N_28| Int) (|O_28| Int) (|P_28| Int) (|Q_28| Int) (|R_28| Int) (|S_28| Int) (|T_28| Int) (|U_28| Int) (|Z1_17| Int) (|W_28| Int) (|X_28| Int) (|Y_28| Int) (|Z_28| Int) (|A1_28| Int) (|B1_28| Int) (|C1_28| Int) (|D1_28| Int) (|E1_28| Int) (|F1_28| Int) (|G1_28| Int) (|H1_28| Int) (|I1_28| Int) (|J1_28| Int) (|K1_28| Int) (|L1_28| Int) (|M1_28| Int) (|N1_28| Int) (|O1_28| Int) (|P1_28| Int) (|Q1_28| Int) (|R1_28| Int) (|S1_28| Int) (|T1_28| Int) (|U1_28| Int) (|V1_28| Int) (|W1_28| Int) (|X1_28| Int) (|Y1_28| Bool) (|.loc.5| Bool) (|.loc.6| Bool) (|.loc.7| Bool) (|.loc.8| Bool) (|Z1_0| (Array Int Int)) (|G2_0| Int) (|F2_2| Int) (|E2_3| Int) (|.x.1640| Int) (|.x.1638| Int) (|.x.1636| (Array Int Int)) (|.x.1634| Int) (|.x.1632| (Array Int Int)) (|.x.1628| Int) (|.x.1630| (Array Int Int)) (|.x.1649| Int) (|.x.1643| Int) (|.x.1653| Int) (|.x.1673| Int) (|.x.1678| Bool) (|.x.1641| Int) (|.x.1629| (Array Int Int)) (|.x.1642| Int) (|.x.1647| Int) (|.x.1648| Int) (|.x.1663| Int) (|.x.1668| Int) (|.x.1669| Int) (|.x.1670| Int) (|.x.1672| Int) (|.loc.9| Bool) (|.x.1652| Int) (|.x.1651| Int) (|.x.1655| Int) (|.x.1656| Int) (|.x.1657| Int) (|.x.1662| Int) (|.x.1671| Int) (|.loc.10| Bool) (|.x.1660| Int) (|.x.1659| Int) (|.x.1654| Int) (|.loc.11| Bool) (|.loc.12| Bool) (|.x.1645| Int) (|.x.1650| Int) (|.x.1644| Int) (|.x.1646| Int) (|.x.1631| (Array Int Int)) (|.x.1665| Int) (|.x.1666| Int) (|.x.1667| Int) (|.x.1674| Int) (|.x.1675| Int) (|.x.1676| Int) (|.x.1677| Int) (|.x.1635| (Array Int Int)) (|.x.1633| Int) (|.x.1637| Int) (|.x.1639| Int) (|.x.1658| Int) (|.x.1661| Int) (|.x.1664| Int) (|.xtv.1| (Array Int Int)) (|.xtv.2| Int) (|.xtv.3| Int) (|.xtv.4| Int)) (=> (and (state |A_28| |B_28| |C_28| |D_28| |E_28| |F_28| |G_28| |H_28| |I_28| |J_28| |K_28| |L_28| |M_28| |N_28| |O_28| |P_28| |Q_28| |R_28| |S_28| |T_28| |U_28| |Z1_17| |W_28| |X_28| |Y_28| |Z_28| |A1_28| |B1_28| |C1_28| |D1_28| |E1_28| |F1_28| |G1_28| |H1_28| |I1_28| |J1_28| |K1_28| |L1_28| |M1_28| |N1_28| |O1_28| |P1_28| |Q1_28| |R1_28| |S1_28| |T1_28| |U1_28| |V1_28| |W1_28| |X1_28| |Y1_28| |.loc.5| |.loc.6| |.loc.7| |.loc.8| |Z1_0| |G2_0| |F2_2| |E2_3|) (let ((.def_69 (not .loc.6))) (let ((.def_72 (not .loc.8))) (let ((.def_112 (= P_28 .x.1643))) (let ((.def_115 (= Z_28 .x.1653))) (let ((.def_118 (= T1_28 .x.1673))) (let ((.def_121 (= Y1_28 .x.1678))) (let ((.def_125 (= .x.1643 0))) (let ((.def_129 (= Z1_17 .x.1649))) (let ((.def_133 (* 4 F1_28))) (let ((.def_135 (select D_28 U_28))) (let ((.def_142 (<= K1_28 F1_28))) (let ((.def_143 (not .def_142))) (let ((.def_147 (or Y1_28 (and (= .x.1643 .x.1673) (and (= .x.1653 (select .def_135 (+ O_28 .def_133))) (and (= .x.1673 (ite (<= 0 .x.1653) 1 0)) .def_143)))))) (let ((.def_151 (= N_28 .x.1641))) (let ((.def_153 (= B_28 .x.1629))) (let ((.def_156 (= O_28 .x.1642))) (let ((.def_157 (and (and .def_151 .def_153) .def_156))) (let ((.def_159 (= T_28 .x.1647))) (let ((.def_162 (= U_28 .x.1648))) (let ((.def_163 (and (and .def_157 .def_159) .def_162))) (let ((.def_165 (= J1_28 .x.1663))) (let ((.def_168 (= O1_28 .x.1668))) (let ((.def_171 (= P1_28 .x.1669))) (let ((.def_174 (= Q1_28 .x.1670))) (let ((.def_177 (= S1_28 .x.1672))) (let ((.def_179 (not .loc.5))) (let ((.def_188 (= .x.1629 (store (store (store (store B_28 S1_28 0) N_28 0) Q1_28 0) U_28 0)))) (let ((.def_189 (= .x.1669 0))) (let ((.def_194 (and .def_121 (and .def_118 (and .def_112 .def_115))))) (let ((.def_198 (not .loc.9))) (let ((.def_203 (= Y_28 .x.1652))) (let ((.def_205 (= X_28 .x.1651))) (let ((.def_208 (= B1_28 .x.1655))) (let ((.def_211 (= C1_28 .x.1656))) (let ((.def_214 (= D1_28 .x.1657))) (let ((.def_217 (= I1_28 .x.1662))) (let ((.def_220 (= R1_28 .x.1671))) (let ((.def_228 (<= 0 (+ G2_0 (+ F2_2 (* (- 1) E2_3)))))) (let ((.def_229 (not .def_228))) (let ((.def_237 (not .loc.7))) (let ((.def_241 (select D_28 N_28))) (let ((.def_246 (select D_28 S1_28))) (let ((.def_249 (<= H1_28 F1_28))) (let ((.def_255 (= E2_3 (select .def_135 (+ O_28 (* 4 .x.1662)))))) (let ((.def_258 (select D_28 Q1_28))) (let ((.def_266 (= G2_0 (select .def_135 (+ O_28 (* 4 .x.1671)))))) (let ((.def_269 (or Y1_28 (and (= .x.1662 (select .def_241 (+ .def_133 J1_28))) (and (and (and (and (= .x.1671 (select .def_246 (+ T_28 .def_133))) (not .def_249)) .def_255) (= F2_2 (select .def_258 (+ .def_133 O1_28)))) .def_266))))) (let ((.def_277 (and .def_112 (and .def_156 (and .def_151 (and Y1_28 .def_153)))))) (let ((.def_282 (and .def_115 (and .def_203 (and .def_205 (and .def_162 (and .def_159 .def_277))))))) (let ((.def_300 (not .loc.10))) (let ((.def_303 (and .def_112 .def_157))) (let ((.def_305 (and .def_162 (and .def_159 .def_303)))) (let ((.def_307 (and .def_203 (and .def_205 .def_305)))) (let ((.def_308 (and .def_115 .def_307))) (let ((.def_311 (and .def_214 (and .def_211 (and .def_208 .def_308))))) (let ((.def_327 (or Y1_28 .def_142))) (let ((.def_331 (= G1_28 .x.1660))) (let ((.def_333 (= F1_28 .x.1659))) (let ((.def_358 (= (+ F1_28 (* (- 1) .x.1659)) (- 1)))) (let ((.def_359 (or .x.1678 .def_358))) (let ((.def_379 (= .x.1659 0))) (let ((.def_380 (or Y1_28 .def_379))) (let ((.def_384 (= A1_28 .x.1654))) (let ((.def_406 (not .loc.11))) (let ((.def_408 (or .x.1678 .def_228))) (let ((.def_414 (and .def_214 (and .def_211 (and .def_208 (and .def_308 .def_384)))))) (let ((.def_425 (and .loc.5 (and .def_121 (and .def_118 (and .def_177 (and .def_220 (and .def_174 (and .def_171 (and .def_168 (and .def_165 (and .def_217 (and .def_331 .def_414))))))))))))) (let ((.def_449 (and .def_121 (and .def_118 (and .def_177 (and .def_220 (and .def_174 (and .def_171 (and .def_168 (and .def_165 (and .def_217 (and .def_331 (and .def_333 (and .def_214 (and .def_211 (and .def_208 (and .def_282 .def_384))))))))))))))))) (let ((.def_470 (and .def_121 (and .def_118 (and .def_177 (and .def_220 (and .def_174 (and .def_171 (and .def_168 (and .def_165 (and .def_217 (and .def_331 (and .def_333 .def_414))))))))))))) (let ((.def_510 (not .loc.12))) (let ((.def_568 (= R_28 .x.1645))) (let ((.def_578 (or Y1_28 .def_358))) (let ((.def_590 (and .def_214 (and .def_211 (and .def_208 (and .def_384 (and .def_115 (and .def_203 (and .def_205 (and .def_162 (and .def_159 (and .def_303 .def_568)))))))))))) (let ((.def_643 (<= H1_28 W_28))) (let ((.def_655 (and .def_121 (and .def_118 (and .def_177 (and .def_220 (and .def_174 (and .def_171 (and .def_168 (and .def_165 (and .def_217 (and .def_331 (and .def_333 .def_590))))))))))))) (let ((.def_668 (= W_28 .x.1650))) (let ((.def_670 (= Q_28 .x.1644))) (let ((.def_722 (and .def_568 (and .def_303 .def_670)))) (let ((.def_724 (and .def_162 (and .def_159 .def_722)))) (let ((.def_732 (and .def_214 (and .def_211 (and .def_208 (and .def_384 (and .def_115 (and .def_203 (and .def_205 (and .def_668 .def_724)))))))))) (let ((.def_788 (= S_28 .x.1646))) (let ((.def_812 (= D_28 .x.1631))) (let ((.def_814 (= L1_28 .x.1665))) (let ((.def_817 (= M1_28 .x.1666))) (let ((.def_820 (= N1_28 .x.1667))) (let ((.def_823 (= U1_28 .x.1674))) (let ((.def_826 (= V1_28 .x.1675))) (let ((.def_829 (= W1_28 .x.1676))) (let ((.def_832 (= X1_28 .x.1677))) (let ((.def_836 (select D_28 .x.1648))) (let ((.def_897 (or Y1_28 (and (= .x.1662 (select .def_241 (+ (* 4 W_28) J1_28))) (and (= .x.1671 (select .def_246 (+ T_28 (* 4 W_28)))) (and .def_255 (and (and .def_266 (not .def_643)) (= F2_2 (select .def_258 (+ (* 4 W_28) O1_28)))))))))) (let ((.def_941 (= H_28 .x.1635))) (let ((.def_943 (= F_28 .x.1633))) (let ((.def_946 (= J_28 .x.1637))) (let ((.def_949 (= L_28 .x.1639))) (let ((.def_952 (= E1_28 .x.1658))) (let ((.def_955 (= H1_28 .x.1661))) (let ((.def_958 (= K1_28 .x.1664))) (let ((.def_1016 (select .x.1631 .x.1641))) (let ((.def_1030 (select .x.1631 .x.1670))) (let ((.def_1051 (select .x.1631 .x.1672))) (let ((.def_1060 (store Z1_0 .x.1672 1))) (let ((.def_1064 (store .def_1060 .x.1641 1))) (let ((.def_1068 (store .def_1064 .x.1670 1))) (let ((.def_1330 (= .x.1659 .x.1658))) (let ((.def_1382 (and .def_510 (and .def_72 (and .def_300 (and .def_198 (and .def_129 (and .loc.11 (and .def_179 (and .loc.7 (and .loc.6 (and .def_121 (and .def_832 (and .def_829 (and .def_826 (and .def_823 (and .def_118 (and .def_177 (and .def_220 (and .def_174 (and .def_171 (and .def_168 (and .def_820 (and .def_817 (and .def_814 (and .def_958 (and .def_165 (and .def_217 (and .def_955 (and .def_331 (and .def_333 (and .def_952 (and .def_214 (and .def_211 (and .def_208 (and .def_384 (and .def_115 (and .def_203 (and .def_205 (and .def_668 (and .def_162 (and .def_159 (and .def_788 (and .def_568 (and .def_670 (and .def_112 (and .def_156 (and .def_151 (and .def_949 (and .def_946 (and .def_941 (and .def_153 .def_943)))))))))))))))))))))))))))))))))))))))))))))))))))) (let ((.def_1384 (or Y1_28 .def_143))) (and (and (= M_28 .x.1640) (and (= K_28 .x.1638) (and (= I_28 .x.1636) (and (= G_28 .x.1634) (and (= E_28 .x.1632) (and (= A_28 .x.1628) (= C_28 .x.1630))))))) (or (or (or (and (or (or (and (or (and (or (or (or (or (and (or (or (or (or (and (or (or (or (or (and (or (or (or (or (and (or (or (and (or (or (and (or (and (or (and (or (and .loc.6 (and (and (and (and (or Y1_28 (= P1_28 .x.1649)) .def_112) .def_115) .def_118) .def_121)) (and (and (and (or Y1_28 .def_125) (and .def_69 .x.1678)) .def_129) .def_147)) (and (and (and (and (and (and (and .def_163 .def_165) .def_168) .def_171) .def_174) .def_177) .def_179) .loc.9)) (and (or Y1_28 (and .def_188 .def_189)) (and (and .def_129 (and .def_69 (and .loc.5 .def_194))) .def_198))) (and .loc.7 (and (and (and (and (and (and .def_203 .def_205) .def_208) .def_211) .def_214) .def_217) .def_220))) (and (and (or .x.1678 (and .def_188 (and .def_189 .def_229))) (and (and .def_198 (and .def_129 (and .def_179 (and .loc.6 .def_194)))) .def_237)) .def_269)) .loc.10) (and (and .def_129 (and .def_69 (and .loc.9 (and .def_179 (and .loc.7 (and .def_121 (and .def_118 (and .def_177 (and .def_220 (and .def_174 (and .def_171 (and .def_168 (and .def_165 (and .def_217 (and .def_214 (and .def_211 (and .def_208 .def_282))))))))))))))))) .def_300)) (and (and .def_300 (and .def_129 (and .def_69 (and .loc.9 (and .def_179 (and .loc.7 (and .def_121 (and .def_118 (and .def_177 (and .def_220 (and .def_174 (and .def_171 (and .def_168 (and .def_165 (and .def_217 .def_311))))))))))))))) .def_327)) (and .loc.8 (and .def_331 .def_333))) (and (and .def_72 (and .def_300 (and .def_237 (and .def_198 (and .def_129 (and .def_69 (and .def_179 (and .def_121 (and .def_118 (and .def_177 (and .def_220 (and .def_174 (and .def_171 (and .def_168 (and .def_165 (and .def_217 (and .def_214 (and .def_211 (and .def_208 .def_307))))))))))))))))))) .def_359)) (and (and .def_300 (and .def_237 (and .def_198 (and .def_129 (and .loc.8 (and .loc.6 (and .loc.5 (and .def_121 (and .def_118 (and .def_177 (and .def_220 (and .def_174 (and .def_171 (and .def_168 (and .def_165 (and .def_217 (and .def_311 .def_331))))))))))))))))) .def_380)) (and .def_384 .loc.11)) (and (and (and .def_359 (and .def_269 (and .def_237 (and .def_198 (and .def_129 (and .loc.10 (and .def_179 (and .loc.8 (and .loc.6 (and .def_121 (and .def_118 (and .def_177 (and .def_174 (and .def_171 (and .def_168 (and .def_165 (and .def_331 (and .def_115 .def_305)))))))))))))))))) .def_406) .def_408)) (and .def_406 (and .def_380 (and .def_237 (and .def_198 (and .def_129 (and .def_69 (and .loc.10 (and .loc.8 .def_425))))))))) (and .def_406 (and .def_237 (and .def_129 (and .loc.10 (and .loc.9 (and .def_179 (and .loc.8 (and .loc.6 .def_449))))))))) (and (or Y1_28 .def_249) (and .def_406 (and .def_237 (and .def_129 (and .loc.10 (and .loc.9 (and .def_179 (and .loc.8 (and .loc.6 .def_470)))))))))) .loc.12) (and (or .x.1678 (not .def_125)) (and (and .def_406 (and .def_300 (and .def_198 (and .def_147 (and .def_129 (and .def_69 (and .def_179 (and .loc.8 (and .loc.7 (and .def_121 (and .def_177 (and .def_220 (and .def_174 (and .def_171 (and .def_168 (and .def_165 (and .def_217 (and .def_331 (and .def_333 (and .def_214 (and .def_211 (and .def_208 (and .def_384 (and .def_203 (and .def_163 .def_205))))))))))))))))))))))))) .def_510))) (and .def_510 (and .def_406 (and .def_300 (and .def_198 (and .def_147 (and .def_129 (and .def_69 (and .def_179 (and .loc.8 (and .loc.7 (and .def_177 (and .def_220 (and .def_174 (and .def_171 (and .def_168 (and .def_165 (and .def_217 (and .def_331 (and .def_333 (and .def_214 (and .def_211 (and .def_208 (and .def_384 (and .def_203 (and .def_205 (and .def_162 (and .def_159 (and .def_156 (and .def_151 (and .def_153 (and Y1_28 .x.1678)))))))))))))))))))))))))))))))) (and .def_406 (and .def_300 (and .def_237 (and .def_129 (and .def_69 (and .loc.12 (and .loc.9 (and .def_179 (and .loc.8 .def_449)))))))))) (and .def_406 (and .def_327 (and .def_300 (and .def_237 (and .def_129 (and .def_69 (and .loc.12 (and .loc.9 (and .def_179 (and .loc.8 .def_470))))))))))) .def_568) (and (and .def_406 (and .def_72 (and .def_300 (and .def_237 (and .def_198 (and .def_129 (and .loc.12 (and .loc.6 .def_425)))))))) .def_578)) (and .def_406 (and .def_380 (and .def_72 (and .def_300 (and .def_198 (and .def_129 (and .loc.12 (and .loc.7 (and .loc.6 (and .loc.5 (and .def_121 (and .def_118 (and .def_177 (and .def_220 (and .def_174 (and .def_171 (and .def_168 (and .def_165 (and .def_217 (and .def_331 .def_590))))))))))))))))))))) (and .def_510 (and .def_406 (and .def_72 (and .def_237 (and .def_129 (and .loc.10 (and .loc.9 (and .def_179 (and .loc.6 (and .def_121 (and .def_118 (and .def_177 (and .def_220 (and .def_174 (and .def_171 (and .def_168 (and .def_165 (and .def_217 (and .def_331 (and .def_333 (and .def_214 (and .def_211 (and .def_208 (and .def_384 (and .def_115 (and .def_203 (and .def_205 (and .def_162 (and .def_159 (and .def_277 .def_568))))))))))))))))))))))))))))))) (and (or Y1_28 .def_643) (and .def_510 (and .def_406 (and .def_72 (and .def_237 (and .def_129 (and .loc.10 (and .loc.9 (and .def_179 (and .loc.6 .def_655))))))))))) (and .def_668 .def_670)) (and (or Y1_28 (= (+ W_28 (* (- 1) .x.1650)) (- 1))) (and .def_510 (and .def_406 (and .def_72 (and .def_237 (and .def_198 (and .def_129 (and .def_69 (and .loc.10 (and .loc.5 .def_655))))))))))) (and .def_510 (and .def_72 (and .def_129 (and .loc.11 (and .loc.10 (and .loc.9 (and .def_179 (and .loc.7 (and .loc.6 (and .def_121 (and .def_118 (and .def_177 (and .def_220 (and .def_174 (and .def_171 (and .def_168 (and .def_165 (and .def_217 (and .def_331 (and .def_333 (and .def_214 (and .def_211 (and .def_208 (and .def_384 (and .def_115 (and .def_203 (and .def_205 (and .def_668 (and .def_162 (and .def_159 (and .def_568 (and .def_277 .def_670))))))))))))))))))))))))))))))))) (and .def_510 (and .def_72 (and .def_327 (and .def_129 (and .loc.11 (and .loc.10 (and .loc.9 (and .def_179 (and .loc.7 (and .loc.6 (and .def_121 (and .def_118 (and .def_177 (and .def_220 (and .def_174 (and .def_171 (and .def_168 (and .def_165 (and .def_217 (and .def_331 (and .def_333 .def_732)))))))))))))))))))))) (and (or Y1_28 (and .def_143 (= .x.1650 0))) (and .def_510 (and .def_406 (and .def_237 (and .def_198 (and .def_129 (and .def_69 (and .loc.10 (and .def_179 (and .loc.8 (and .def_121 (and .def_118 (and .def_177 (and .def_220 (and .def_174 (and .def_171 (and .def_168 (and .def_165 (and .def_217 (and .def_331 (and .def_333 (and .def_214 (and .def_211 (and .def_208 (and .def_384 (and .def_115 (and .def_203 (and .def_205 .def_724))))))))))))))))))))))))))))) .def_788) (and .def_578 (and .def_510 (and .def_72 (and .def_198 (and .def_129 (and .def_69 (and .loc.11 (and .loc.10 (and .def_179 (and .loc.7 (and .def_121 (and .def_118 (and .def_177 (and .def_220 (and .def_174 (and .def_171 (and .def_168 (and .def_165 (and .def_217 (and .def_331 .def_732))))))))))))))))))))) (and (and (and (and (and (and (and .def_812 .def_814) .def_817) .def_820) .def_823) .def_826) .def_829) .def_832)) (and (and (or .x.1678 (and .def_229 (= .x.1631 (store D_28 .x.1648 (store .def_836 (+ .x.1642 (* 4 .x.1662)) (+ (select .def_836 (+ .x.1642 (* 4 .x.1671))) (select (select D_28 .x.1670) (+ .x.1668 (* 4 .x.1650))))))))) (and .def_510 (and .def_406 (and .def_72 (and .def_300 (and .def_237 (and .def_129 (and .loc.9 (and .def_179 (and .loc.6 (and .def_121 (and .def_118 (and .def_177 (and .def_174 (and .def_171 (and .def_168 (and .def_165 (and .def_331 (and .def_333 (and .def_214 (and .def_211 (and .def_208 (and .def_384 (and .def_115 (and .def_203 (and .def_205 (and .def_668 (and .def_162 (and .def_159 (and .def_722 .def_788)))))))))))))))))))))))))))))) .def_897)) (and .def_897 (and .def_510 (and .def_408 (and .def_406 (and .def_72 (and .def_300 (and .def_237 (and .def_129 (and .loc.9 (and .def_179 (and .loc.6 (and .def_121 (and .def_118 (and .def_177 (and .def_174 (and .def_171 (and .def_168 (and .def_817 (and .def_814 (and .def_165 (and .def_331 (and .def_333 (and .def_214 (and .def_211 (and .def_208 (and .def_384 (and .def_115 (and .def_203 (and .def_205 (and .def_668 (and .def_162 (and .def_159 (and .def_788 (and .def_568 (and .def_670 (and .def_112 (and .def_156 (and .def_151 (and .def_153 .def_812)))))))))))))))))))))))))))))))))))))))) (and (and (and (and (and (and .def_941 .def_943) .def_946) .def_949) .def_952) .def_955) .def_958)) (and (or Y1_28 (and (and (= .x.1633 0) (and (= .x.1637 899) (= .x.1639 0))) (= Z1_0 (store B_28 0 0)))) (and (or .x.1678 (and (and (and (and (and (and (and (and (and (and (and (and (and (and (and (and (and (and (and (and (and (and (and (and (and (and (and (and (and (and (and (and (and (and (and (and (and (and (and (and (and (and (and (and (and (and (and (and (and (and (and (and (and (and (and (and (and (and (and (and (and (and (and (and (and (and (and (and (and (and (and (and (and (and .def_379 (and (and (and (and (and (and (and (not (<= .x.1628 .x.1648)) (not (<= .x.1628 .x.1641))) (not (<= .x.1628 .x.1670))) (not (<= .x.1628 .x.1672))) (not (= .x.1641 0))) (= .x.1642 0)) (= .x.1647 0)) (= .x.1658 0))) (= .x.1661 20)) (not (= .x.1670 0))) (= .x.1664 5)) (not (= .x.1648 0))) (not (= .x.1672 0))) (= .x.1668 0)) (= .x.1663 0)) (= (select Z1_0 .x.1672) 0)) (= (select .def_1016 (+ .x.1663 48)) 0)) (= (select .def_1016 (+ .x.1663 44)) 0)) (= (select .def_1016 (+ .x.1663 60)) 0)) (= (select .def_1030 .x.1668) 0)) (= (select .def_1016 (+ .x.1663 68)) 1)) (= (select .def_1016 (+ .x.1663 12)) 1)) (= (select .def_1016 (+ .x.1663 16)) 1)) (= (select .def_1051 (+ .x.1647 64)) 1)) (= (select .def_1030 (+ .x.1668 68)) 17)) (= (select .def_1060 .x.1641) 0)) (= (select .def_1064 .x.1670) 0)) (= (select .def_1068 .x.1648) 0)) (= (select .def_1016 .x.1663) 1)) (= (select .def_1016 (+ .x.1663 4)) 3)) (= (select .def_1016 (+ .x.1663 56)) 3)) (= (select .def_1016 (+ .x.1663 72)) 0)) (= (select .def_1016 (+ .x.1663 24)) 3)) (= (select .def_1016 (+ .x.1663 36)) 0)) (= (select .def_1016 (+ .x.1663 28)) 4)) (= (select .def_1016 (+ .x.1663 40)) 0)) (= (select .def_1016 (+ .x.1663 52)) 2)) (= (select .def_1030 (+ .x.1668 4)) 1)) (= (select .def_1030 (+ .x.1668 24)) 6)) (= (select .def_1030 (+ .x.1668 8)) 2)) (= (select .def_1030 (+ .x.1668 36)) 9)) (= (select .def_1030 (+ .x.1668 28)) 7)) (= (select .def_1030 (+ .x.1668 44)) 11)) (= (select .def_1030 (+ .x.1668 64)) 16)) (= (select .def_1030 (+ .x.1668 16)) 4)) (= (select .def_1030 (+ .x.1668 32)) 8)) (= (select .def_1030 (+ .x.1668 40)) 10)) (= (select .def_1030 (+ .x.1668 52)) 13)) (= (select .def_1051 .x.1647) 0)) (= (select .def_1051 (+ .x.1647 76)) 3)) (= (select .def_1051 (+ .x.1647 4)) 4)) (= (select .def_1051 (+ .x.1647 20)) 0)) (= (select .def_1051 (+ .x.1647 56)) 0)) (= (select .def_1051 (+ .x.1647 24)) 1)) (= (select .def_1051 (+ .x.1647 8)) 1)) (= (select .def_1051 (+ .x.1647 48)) 3)) (= (select .def_1051 (+ .x.1647 12)) 1)) (= (select .def_1051 (+ .x.1647 36)) 4)) (= (select .def_1051 (+ .x.1647 44)) 2)) (= (select .def_1051 (+ .x.1647 16)) 0)) (= (select .def_1051 (+ .x.1647 40)) 2)) (= (select .def_1051 (+ .x.1647 52)) 0)) (= (select .def_1030 (+ .x.1668 76)) 19)) (= (select .def_1016 (+ .x.1663 76)) 4)) (= (select .def_1016 (+ .x.1663 20)) 4)) (= (select .def_1016 (+ .x.1663 8)) 4)) (= (select .def_1051 (+ .x.1647 32)) 4)) (= (select .def_1030 (+ .x.1668 56)) 14)) (= (select .def_1030 (+ .x.1668 72)) 18)) (= (select .def_1016 (+ .x.1663 64)) 2)) (= (select .def_1051 (+ .x.1647 68)) 2)) (= (select .def_1051 (+ .x.1647 72)) 2)) (= (select .def_1030 (+ .x.1668 48)) 12)) (= (select .def_1016 (+ .x.1663 32)) 3)) (= (select .def_1030 (+ .x.1668 12)) 3)) (= (select .def_1051 (+ .x.1647 28)) 3)) (= (select .def_1051 (+ .x.1647 60)) 3)) (= (select .def_1030 (+ .x.1668 20)) 5)) (= (select .def_1030 (+ .x.1668 60)) 15)) (= .x.1635 (store (store (store (store H_28 .x.1672 80) .x.1641 80) .x.1670 80) .x.1648 20))) (= .x.1629 (store .def_1068 .x.1648 1)))) (and .def_510 (and .def_72 (and .def_198 (and .def_129 (and .def_69 (and .loc.11 (and .loc.10 (and .loc.7 (and .loc.5 (and .def_121 (and .def_118 (and .def_112 .def_812))))))))))))))) (and (and (or .x.1678 (and (= .x.1631 (store D_28 .x.1648 (store .def_836 (+ .x.1642 (* 4 .x.1659)) 0))) .def_1330)) .def_1382) .def_1384)) (and (or .x.1678 (and (= .x.1631 (store D_28 .x.1648 (store .def_836 (+ .x.1642 (* 4 .x.1659)) .x.1637))) (not .def_1330))) (and .def_1382 .def_1384)))))))))))))))))))))))))))))))))))))))))))))))))))))))))))))))))))))))))))))))))))))))))))))))))))))))))))))))) (state |.x.1628| |.x.1629| |.x.1630| |.x.1631| |.x.1632| |.x.1633| |.x.1634| |.x.1635| |.x.1636| |.x.1637| |.x.1638| |.x.1639| |.x.1640| |.x.1641| |.x.1642| |.x.1643| |.x.1644| |.x.1645| |.x.1646| |.x.1647| |.x.1648| |.x.1649| |.x.1650| |.x.1651| |.x.1652| |.x.1653| |.x.1654| |.x.1655| |.x.1656| |.x.1657| |.x.1658| |.x.1659| |.x.1660| |.x.1661| |.x.1662| |.x.1663| |.x.1664| |.x.1665| |.x.1666| |.x.1667| |.x.1668| |.x.1669| |.x.1670| |.x.1671| |.x.1672| |.x.1673| |.x.1674| |.x.1675| |.x.1676| |.x.1677| |.x.1678| |.loc.9| |.loc.10| |.loc.11| |.loc.12| |.xtv.1| |.xtv.2| |.xtv.3| |.xtv.4|))))
(assert (forall ((|A_28| Int) (|B_28| (Array Int Int)) (|C_28| (Array Int Int)) (|D_28| (Array Int Int)) (|E_28| (Array Int Int)) (|F_28| Int) (|G_28| Int) (|H_28| (Array Int Int)) (|I_28| (Array Int Int)) (|J_28| Int) (|K_28| Int) (|L_28| Int) (|M_28| Int) (|N_28| Int) (|O_28| Int) (|P_28| Int) (|Q_28| Int) (|R_28| Int) (|S_28| Int) (|T_28| Int) (|U_28| Int) (|Z1_17| Int) (|W_28| Int) (|X_28| Int) (|Y_28| Int) (|Z_28| Int) (|A1_28| Int) (|B1_28| Int) (|C1_28| Int) (|D1_28| Int) (|E1_28| Int) (|F1_28| Int) (|G1_28| Int) (|H1_28| Int) (|I1_28| Int) (|J1_28| Int) (|K1_28| Int) (|L1_28| Int) (|M1_28| Int) (|N1_28| Int) (|O1_28| Int) (|P1_28| Int) (|Q1_28| Int) (|R1_28| Int) (|S1_28| Int) (|T1_28| Int) (|U1_28| Int) (|V1_28| Int) (|W1_28| Int) (|X1_28| Int) (|Y1_28| Bool) (|.loc.5| Bool) (|.loc.6| Bool) (|.loc.7| Bool) (|.loc.8| Bool) (|Z1_0| (Array Int Int)) (|G2_0| Int) (|F2_2| Int) (|E2_3| Int) (|.x.1640| Int) (|.x.1638| Int) (|.x.1636| (Array Int Int)) (|.x.1634| Int) (|.x.1632| (Array Int Int)) (|.x.1628| Int) (|.x.1630| (Array Int Int)) (|.x.1649| Int) (|.x.1643| Int) (|.x.1653| Int) (|.x.1673| Int) (|.x.1678| Bool) (|.x.1641| Int) (|.x.1629| (Array Int Int)) (|.x.1642| Int) (|.x.1647| Int) (|.x.1648| Int) (|.x.1663| Int) (|.x.1668| Int) (|.x.1669| Int) (|.x.1670| Int) (|.x.1672| Int) (|.loc.9| Bool) (|.x.1652| Int) (|.x.1651| Int) (|.x.1655| Int) (|.x.1656| Int) (|.x.1657| Int) (|.x.1662| Int) (|.x.1671| Int) (|.loc.10| Bool) (|.x.1660| Int) (|.x.1659| Int) (|.x.1654| Int) (|.loc.11| Bool) (|.loc.12| Bool) (|.x.1645| Int) (|.x.1650| Int) (|.x.1644| Int) (|.x.1646| Int) (|.x.1631| (Array Int Int)) (|.x.1665| Int) (|.x.1666| Int) (|.x.1667| Int) (|.x.1674| Int) (|.x.1675| Int) (|.x.1676| Int) (|.x.1677| Int) (|.x.1635| (Array Int Int)) (|.x.1633| Int) (|.x.1637| Int) (|.x.1639| Int) (|.x.1658| Int) (|.x.1661| Int) (|.x.1664| Int) (|.xtv.1| (Array Int Int)) (|.xtv.2| Int) (|.xtv.3| Int) (|.xtv.4| Int)) (=> (state |A_28| |B_28| |C_28| |D_28| |E_28| |F_28| |G_28| |H_28| |I_28| |J_28| |K_28| |L_28| |M_28| |N_28| |O_28| |P_28| |Q_28| |R_28| |S_28| |T_28| |U_28| |Z1_17| |W_28| |X_28| |Y_28| |Z_28| |A1_28| |B1_28| |C1_28| |D1_28| |E1_28| |F1_28| |G1_28| |H1_28| |I1_28| |J1_28| |K1_28| |L1_28| |M1_28| |N1_28| |O1_28| |P1_28| |Q1_28| |R1_28| |S1_28| |T1_28| |U1_28| |V1_28| |W1_28| |X1_28| |Y1_28| |.loc.5| |.loc.6| |.loc.7| |.loc.8| |Z1_0| |G2_0| |F2_2| |E2_3|) (not (and Y1_28 (and .loc.8 (and .loc.7 (and .loc.5 .loc.6))))))))
(check-sat)
